
******************************************************************************
This program contains Ipopt, a library for large-scale nonlinear optimization.
 Ipopt is released as open source code under the Eclipse Public License (EPL).
         For more information visit https://github.com/coin-or/Ipopt
******************************************************************************

This is Ipopt version 3.14.14, running with linear solver MUMPS 5.6.2.

Number of nonzeros in equality constraint Jacobian...:        0
Number of nonzeros in inequality constraint Jacobian.:       56
Number of nonzeros in Lagrangian Hessian.............:        0

Total number of variables............................:       14
                     variables with only lower bounds:        6
                variables with lower and upper bounds:        0
                     variables with only upper bounds:        0
Total number of equality constraints.................:        0
Total number of inequality constraints...............:        4
        inequality constraints with only lower bounds:        0
   inequality constraints with lower and upper bounds:        0
        inequality constraints with only upper bounds:        4

iter    objective    inf_pr   inf_du lg(mu)  ||d||  lg(rg) alpha_du alpha_pr  ls
   0  9.9731890e-02 8.42e+00 1.34e+00   0.0 0.00e+00    -  0.00e+00 0.00e+00   0
   1  8.6393131e-04 8.60e+00 1.47e+00  -0.4 3.80e-01    -  9.00e-01 1.00e+00f  1
   2  2.5555615e-03 0.00e+00 9.63e-02  -1.9 3.21e-01    -  9.40e-01 1.00e+00h  1
   3  1.8896424e-03 0.00e+00 4.21e-02  -3.2 7.80e-02    -  9.93e-01 1.00e+00h  1
   4  8.2089590e-04 0.00e+00 6.60e-03  -3.8 2.53e-01    -  9.98e-01 1.00e+00h  1
   5  5.5476800e-05 8.75e-02 6.72e-03  -4.0 3.96e-01    -  9.53e-01 1.00e+00h  1
   6  5.6790246e-06 0.00e+00 3.65e-03  -4.4 2.20e+00    -  9.99e-01 1.00e+00h  1
   7  2.8674953e-08 0.00e+00 1.57e-04  -6.8 3.74e-02    -  9.93e-01 1.00e+00h  1
   8  1.2952077e-09 0.00e+00 3.13e-05  -8.3 1.84e-01    -  1.00e+00 1.00e+00h  1
   9  8.6871183e-14 0.00e+00 2.59e-07 -10.3 1.62e-02    -  1.00e+00 1.00e+00h  1

Number of Iterations....: 9

                                   (scaled)                 (unscaled)
Objective...............:   8.6871183136903763e-14    8.6871183136903763e-14
Dual infeasibility......:   2.5939752145064738e-07    2.5939752145064738e-07
Constraint violation....:   0.0000000000000000e+00    0.0000000000000000e+00
Variable bound violation:   0.0000000000000000e+00    0.0000000000000000e+00
Complementarity.........:   5.5021893693583430e-11    5.5021893693583430e-11
Overall NLP error.......:   2.5939752145064738e-07    2.5939752145064738e-07


Number of objective function evaluations             = 10
Number of objective gradient evaluations             = 10
Number of equality constraint evaluations            = 0
Number of inequality constraint evaluations          = 10
Number of equality constraint Jacobian evaluations   = 0
Number of inequality constraint Jacobian evaluations = 10
Number of Lagrangian Hessian evaluations             = 0
Total seconds in IPOPT                               = 274.402

EXIT: Optimal Solution Found.
